c defined variables: 33 34 35 36 37 38 39 40 41 42 43 44 45 46 47 48 49 50 51 52 53 54 55 56 57 58 59 60 61 62 63 64 65 66 67 68 69 70 71 72 73 74 75 76 77 78 79 80 81 82 83 84 85 86 87 88 89 90 91 92 93 94 95 96 97 98 99 100 101 102 103 104 105 106 107 108 109 110 111 112 113 114 115 116 117 118 119 120 121 122 123 124 125 126 127 128 129 130 131 132 133 134 135 136 137 138 139 140 141 142 143 144 145 146 147 148 149 150 151 152 153 154 155 156 157 158 159 160 161 162 163 164 165 166 167 180 181 182 183 184 185 186 187 188 189 190 191 192 193 194 195 196 197 198 199 200 201 202 203 204 205 206 207 208 209 210 211 212 213 214 215 216 217 218 219 220 221 222 223 224 225 226 227 228 229 230 231 232 233 234 235 236 237 238 239 240 241 242 243 244 245 246 247 248 249 250 251 252 253 254 255 256 257 258 259 260 261 262 263 264 265 266 267 268 269 271 272 273 274 275 276 277 278 279 280 281 282 283 284 285 286 287 288 289 290 291 292 293 294 295 296 297 298 299 300 301 302 303 304 305 306 307 308 309 310 311 312 313 314 315 316 317 
p cnf 1435 2191
a 1 2 3 4 5 6 7 8 9 10 11 12 13 14 15 16 17 18 19 20 21 22 23 24 25 26 27 28 29 30 31 32 170 171 172 173 174 175 176 177 0
e 33 34 35 36 37 38 39 40 41 42 43 44 45 46 47 48 49 50 51 52 53 54 55 56 57 58 59 60 61 62 63 64 65 66 67 68 69 70 71 72 73 74 75 76 77 78 79 80 81 82 83 84 85 86 87 88 89 90 91 92 93 94 95 96 97 98 99 100 101 102 103 104 105 106 107 108 109 110 111 112 113 114 115 116 117 118 119 120 121 122 123 124 125 126 127 128 129 130 131 132 133 134 135 136 137 138 139 140 141 142 143 144 145 146 147 148 149 150 151 152 153 154 155 156 157 158 159 160 161 162 163 164 165 166 167 180 181 182 183 184 185 186 187 188 189 190 191 192 193 194 195 196 197 198 199 200 201 202 203 204 205 206 207 208 209 210 211 212 213 214 215 216 217 218 219 220 221 222 223 224 225 226 227 228 229 230 231 232 233 234 235 236 237 238 239 240 241 242 243 244 245 246 247 248 249 250 251 252 253 254 255 256 257 258 259 260 261 262 263 264 265 266 267 268 269 271 272 273 274 275 276 277 278 279 280 281 282 283 284 285 286 287 288 289 290 291 292 293 294 295 296 297 298 299 300 301 302 303 304 305 306 307 308 309 310 311 312 313 314 315 316 317 1171 1172 1173 1174 1175 1176 1177 1178 1179 1180 1181 1182 1183 1184 1185 1186 1187 1188 1189 1190 1191 1192 1193 1194 1195 1196 1197 1198 1199 1200 1201 1202 1203 1204 1205 1206 1207 1208 1209 1210 1211 1212 1213 1214 1215 1216 1217 1218 1219 1220 1221 1222 1223 1224 1225 1226 1227 1228 1229 1230 1231 1232 1233 1234 1235 1236 1237 1238 1239 1240 1241 1242 1243 1244 1245 1246 1247 1248 1249 1250 1251 1252 1253 1254 1255 1256 1257 1258 1259 1260 1261 1262 1263 1264 1265 1266 1267 1268 1269 1270 1271 1272 1273 1274 1275 1276 1277 1278 1279 1280 1281 1282 1283 1284 1285 1286 1287 1288 1289 1290 1291 1292 1293 1294 1295 1296 1297 1298 1299 1300 1301 1302 1303 1304 1305 1306 1307 1308 1309 1310 1311 1312 1313 1314 1315 1316 1317 1318 1319 1320 1321 1322 1323 1324 1325 1326 1327 1328 1329 1330 1331 1332 1333 1334 1335 1336 1337 1338 1339 1340 1341 1342 1343 1344 1345 1346 1347 1348 1349 1350 1351 1352 1353 1354 1355 1356 1357 1358 1359 1360 1361 1362 1363 1364 1365 1366 1367 1368 1369 1370 1371 1372 1373 1374 1375 1376 1377 1378 1379 1380 1381 1382 1383 1384 1385 1386 1387 1388 1389 1390 1391 1392 1393 1394 1395 1396 1397 1398 1399 1400 1401 1402 1403 1404 1405 1406 1407 1408 1409 1410 1411 1412 1413 1414 1415 1416 1417 1418 1419 1420 1421 1422 1423 1424 1425 1426 1427 1428 1429 1430 1431 1432 1433 1434 1435 0
d 168 170 171 172 173 174 175 176 177 0
d 169 170 171 172 173 174 175 176 177 0
d 178 1 2 3 4 5 6 7 8 9 10 11 12 13 14 15 16 17 18 19 20 21 22 23 24 25 26 27 28 29 30 31 32 170 171 172 173 174 175 176 177 0
d 179 1 2 3 4 5 6 7 8 9 10 11 12 13 14 15 16 17 18 19 20 21 22 23 24 25 26 27 28 29 30 31 32 170 171 172 173 174 175 176 177 0
d 270 1 2 3 4 5 6 7 8 9 10 11 12 13 14 15 16 17 18 19 20 21 22 23 24 25 26 27 28 29 30 31 32 170 171 172 173 174 175 176 177 0
1171 -33 0
-1171 33 0
1172 -34 0
-1172 34 0
-1173 -35 0
1173 35 0
1174 -36 0
-1174 36 0
1175 -37 0
-1175 37 0
-1176 -38 0
1176 38 0
1177 -39 0
-1177 39 0
1178 -40 0
-1178 40 0
-1179 -41 0
1179 41 0
-12 -42 0
12 42 0
-1180 -43 0
1180 43 0
-11 -44 0
11 44 0
-1181 -45 0
1181 45 0
-10 -46 0
10 46 0
-1182 -47 0
1182 47 0
-9 -48 0
9 48 0
-1183 -49 0
1183 49 0
-49 -50 0
49 50 0
1184 -51 0
-1184 51 0
1186 -52 0
-1186 52 0
1188 -53 0
-1188 53 0
-1191 -54 0
1191 54 0
1192 -55 0
-1192 55 0
1193 -56 0
-1193 56 0
-1194 -57 0
1194 57 0
1195 -58 0
-1195 58 0
1196 -59 0
-1196 59 0
1197 -60 0
-1197 60 0
1198 -61 0
-1198 61 0
-1199 -62 0
1199 62 0
1200 -63 0
-1200 63 0
1201 -64 0
-1201 64 0
-1202 -65 0
1202 65 0
1203 -66 0
-1203 66 0
1204 -67 0
-1204 67 0
-1205 -68 0
1205 68 0
1206 -69 0
-1206 69 0
1207 -70 0
-1207 70 0
-1208 -71 0
1208 71 0
-8 -72 0
8 72 0
-1209 -73 0
1209 73 0
-7 -74 0
7 74 0
-1210 -75 0
1210 75 0
-6 -76 0
6 76 0
-1211 -77 0
1211 77 0
-5 -78 0
5 78 0
-1212 -79 0
1212 79 0
-79 -80 0
79 80 0
1213 -81 0
-1213 81 0
1215 -82 0
-1215 82 0
1217 -83 0
-1217 83 0
-1220 -84 0
1220 84 0
1221 -85 0
-1221 85 0
1222 -86 0
-1222 86 0
-1223 -87 0
1223 87 0
1224 -88 0
-1224 88 0
1225 -89 0
-1225 89 0
1226 -90 0
-1226 90 0
1227 -91 0
-1227 91 0
-1228 -92 0
1228 92 0
1229 -93 0
-1229 93 0
1230 -94 0
-1230 94 0
-1231 -95 0
1231 95 0
1232 -96 0
-1232 96 0
1233 -97 0
-1233 97 0
-1234 -98 0
1234 98 0
1235 -99 0
-1235 99 0
1236 -100 0
-1236 100 0
-1237 -101 0
1237 101 0
-4 -102 0
4 102 0
-1238 -103 0
1238 103 0
-3 -104 0
3 104 0
-1239 -105 0
1239 105 0
-2 -106 0
2 106 0
-1240 -107 0
1240 107 0
-1 -108 0
1 108 0
-1241 -109 0
1241 109 0
-109 -110 0
109 110 0
1242 -111 0
-1242 111 0
1244 -112 0
-1244 112 0
1246 -113 0
-1246 113 0
-1249 -114 0
1249 114 0
1250 -115 0
-1250 115 0
1251 -116 0
-1251 116 0
-1252 -117 0
1252 117 0
1253 -118 0
-1253 118 0
1254 -119 0
-1254 119 0
1255 -120 0
-1255 120 0
1256 -121 0
-1256 121 0
-1257 -122 0
1257 122 0
1258 -123 0
-1258 123 0
1259 -124 0
-1259 124 0
-1260 -125 0
1260 125 0
1261 -126 0
-1261 126 0
1262 -127 0
-1262 127 0
-1263 -128 0
1263 128 0
1264 -129 0
-1264 129 0
1265 -130 0
-1265 130 0
-1266 -131 0
1266 131 0
-16 -132 0
16 132 0
-1267 -133 0
1267 133 0
-15 -134 0
15 134 0
-1268 -135 0
1268 135 0
-14 -136 0
14 136 0
-1269 -137 0
1269 137 0
-13 -138 0
13 138 0
-1270 -139 0
1270 139 0
-139 -140 0
139 140 0
1271 -141 0
-1271 141 0
1273 -142 0
-1273 142 0
1275 -143 0
-1275 143 0
-1278 -144 0
1278 144 0
1279 -145 0
-1279 145 0
1280 -146 0
-1280 146 0
-1281 -147 0
1281 147 0
1282 -148 0
-1282 148 0
1283 -149 0
-1283 149 0
-144 -150 0
144 150 0
-1284 -151 0
1284 151 0
-54 -152 0
54 152 0
-1285 -153 0
1285 153 0
-84 -154 0
84 154 0
-1286 -155 0
1286 155 0
-114 -156 0
114 156 0
-1287 -157 0
1287 157 0
-157 -158 0
157 158 0
1288 -159 0
-1288 159 0
1290 -160 0
-1290 160 0
1292 -161 0
-1292 161 0
-1295 -162 0
1295 162 0
1296 -163 0
-1296 163 0
1297 -164 0
-1297 164 0
-1298 -165 0
1298 165 0
1299 -166 0
-1299 166 0
1300 -167 0
-1300 167 0
-1301 -180 0
1301 180 0
1200 -181 0
-1200 181 0
1201 -182 0
-1201 182 0
-1302 -183 0
1302 183 0
1203 -184 0
-1203 184 0
1204 -185 0
-1204 185 0
-1303 -186 0
1303 186 0
1206 -187 0
-1206 187 0
1207 -188 0
-1207 188 0
-1304 -189 0
1304 189 0
-8 -190 0
8 190 0
-1305 -191 0
1305 191 0
-7 -192 0
7 192 0
-1306 -193 0
1306 193 0
-6 -194 0
6 194 0
-1307 -195 0
1307 195 0
-5 -196 0
5 196 0
-1308 -197 0
1308 197 0
-197 -198 0
197 198 0
1309 -199 0
-1309 199 0
1311 -200 0
-1311 200 0
1313 -201 0
-1313 201 0
-1316 -202 0
1316 202 0
1221 -203 0
-1221 203 0
1222 -204 0
-1222 204 0
-1317 -205 0
1317 205 0
1318 -206 0
-1318 206 0
1319 -207 0
-1319 207 0
1320 -208 0
-1320 208 0
1321 -209 0
-1321 209 0
-1322 -210 0
1322 210 0
1229 -211 0
-1229 211 0
1230 -212 0
-1230 212 0
-1323 -213 0
1323 213 0
1232 -214 0
-1232 214 0
1233 -215 0
-1233 215 0
-1324 -216 0
1324 216 0
1235 -217 0
-1235 217 0
1236 -218 0
-1236 218 0
-1325 -219 0
1325 219 0
-4 -220 0
4 220 0
-1326 -221 0
1326 221 0
-3 -222 0
3 222 0
-1327 -223 0
1327 223 0
-2 -224 0
2 224 0
-1328 -225 0
1328 225 0
-1 -226 0
1 226 0
-1329 -227 0
1329 227 0
-227 -228 0
227 228 0
1330 -229 0
-1330 229 0
1332 -230 0
-1332 230 0
1334 -231 0
-1334 231 0
-1337 -232 0
1337 232 0
1250 -233 0
-1250 233 0
1251 -234 0
-1251 234 0
-1338 -235 0
1338 235 0
1339 -236 0
-1339 236 0
1340 -237 0
-1340 237 0
1341 -238 0
-1341 238 0
1342 -239 0
-1342 239 0
-1343 -240 0
1343 240 0
1258 -241 0
-1258 241 0
1259 -242 0
-1259 242 0
-1344 -243 0
1344 243 0
1261 -244 0
-1261 244 0
1262 -245 0
-1262 245 0
-1345 -246 0
1345 246 0
1264 -247 0
-1264 247 0
1265 -248 0
-1265 248 0
-1346 -249 0
1346 249 0
-16 -250 0
16 250 0
-1347 -251 0
1347 251 0
-15 -252 0
15 252 0
-1348 -253 0
1348 253 0
-14 -254 0
14 254 0
-1349 -255 0
1349 255 0
-13 -256 0
13 256 0
-1350 -257 0
1350 257 0
-257 -258 0
257 258 0
1351 -259 0
-1351 259 0
1353 -260 0
-1353 260 0
1355 -261 0
-1355 261 0
-1358 -262 0
1358 262 0
1279 -263 0
-1279 263 0
1280 -264 0
-1280 264 0
-1359 -265 0
1359 265 0
1360 -266 0
-1360 266 0
1361 -267 0
-1361 267 0
-262 -268 0
262 268 0
-1362 -269 0
1362 269 0
-1363 -271 0
1363 271 0
-202 -272 0
202 272 0
-1364 -273 0
1364 273 0
-232 -274 0
232 274 0
-1365 -275 0
1365 275 0
-275 -276 0
275 276 0
1366 -277 0
-1366 277 0
1368 -278 0
-1368 278 0
1370 -279 0
-1370 279 0
-1373 -280 0
1373 280 0
1374 -281 0
-1374 281 0
1375 -282 0
-1375 282 0
-1376 -283 0
1376 283 0
1377 -284 0
-1377 284 0
1378 -285 0
-1378 285 0
1171 -286 0
-1171 286 0
1172 -287 0
-1172 287 0
-1379 -288 0
1379 288 0
1174 -289 0
-1174 289 0
1175 -290 0
-1175 290 0
-1380 -291 0
1380 291 0
1177 -292 0
-1177 292 0
1178 -293 0
-1178 293 0
-1381 -294 0
1381 294 0
-12 -295 0
12 295 0
-1382 -296 0
1382 296 0
-11 -297 0
11 297 0
-1383 -298 0
1383 298 0
-10 -299 0
10 299 0
-1384 -300 0
1384 300 0
-9 -301 0
9 301 0
-1385 -302 0
1385 302 0
1192 -303 0
-1192 303 0
1193 -304 0
-1193 304 0
-1386 -305 0
1386 305 0
1389 -306 0
-1389 306 0
1392 -307 0
-1392 307 0
1395 -308 0
-1395 308 0
1397 -309 0
-1397 309 0
1405 -310 0
-1405 310 0
-1411 -311 0
1411 311 0
-1417 -312 0
1417 312 0
1420 -313 0
-1420 313 0
-1424 -314 0
1424 314 0
1429 -315 0
-1429 315 0
-1432 -316 0
1432 316 0
1435 -317 0
-1435 317 0
-33 -11 0
-33 27 0
11 -27 33 0
-34 11 0
-34 -27 0
-11 27 34 0
-33 35 0
-34 35 0
-35 33 34 0
-36 -10 0
-36 26 0
10 -26 36 0
-37 10 0
-37 -26 0
-10 26 37 0
-36 38 0
-37 38 0
-38 36 37 0
-39 -9 0
-39 25 0
9 -25 39 0
-40 9 0
-40 -25 0
-9 25 40 0
-39 41 0
-40 41 0
-41 39 40 0
-12 -42 0
12 42 0
-42 43 0
-28 43 0
-43 42 28 0
-11 -44 0
11 44 0
-44 45 0
-27 45 0
-45 44 27 0
-10 -46 0
10 46 0
-46 47 0
-26 47 0
-47 46 26 0
-9 -48 0
9 48 0
-48 49 0
-25 49 0
-49 48 25 0
-49 -50 0
49 50 0
-51 -41 0
-51 -47 0
41 47 51 0
-52 -38 0
-52 -41 0
-52 -45 0
38 41 45 52 0
-53 -35 0
-53 -38 0
-53 -41 0
-53 -43 0
35 38 41 43 53 0
-50 54 0
-51 54 0
-52 54 0
-53 54 0
-54 50 51 52 53 0
-55 -12 0
-55 28 0
12 -28 55 0
-56 12 0
-56 -28 0
-12 28 56 0
-55 57 0
-56 57 0
-57 55 56 0
-58 -57 0
-58 -35 0
-58 -38 0
-58 -41 0
57 35 38 41 58 0
-59 -54 0
-59 -58 0
54 58 59 0
-60 -54 0
-60 59 0
54 -59 60 0
-61 54 0
-61 -59 0
-54 59 61 0
-60 62 0
-61 62 0
-62 60 61 0
-63 -7 0
-63 23 0
7 -23 63 0
-64 7 0
-64 -23 0
-7 23 64 0
-63 65 0
-64 65 0
-65 63 64 0
-66 -6 0
-66 22 0
6 -22 66 0
-67 6 0
-67 -22 0
-6 22 67 0
-66 68 0
-67 68 0
-68 66 67 0
-69 -5 0
-69 21 0
5 -21 69 0
-70 5 0
-70 -21 0
-5 21 70 0
-69 71 0
-70 71 0
-71 69 70 0
-8 -72 0
8 72 0
-72 73 0
-24 73 0
-73 72 24 0
-7 -74 0
7 74 0
-74 75 0
-23 75 0
-75 74 23 0
-6 -76 0
6 76 0
-76 77 0
-22 77 0
-77 76 22 0
-5 -78 0
5 78 0
-78 79 0
-21 79 0
-79 78 21 0
-79 -80 0
79 80 0
-81 -71 0
-81 -77 0
71 77 81 0
-82 -68 0
-82 -71 0
-82 -75 0
68 71 75 82 0
-83 -65 0
-83 -68 0
-83 -71 0
-83 -73 0
65 68 71 73 83 0
-80 84 0
-81 84 0
-82 84 0
-83 84 0
-84 80 81 82 83 0
-85 -8 0
-85 24 0
8 -24 85 0
-86 8 0
-86 -24 0
-8 24 86 0
-85 87 0
-86 87 0
-87 85 86 0
-88 -87 0
-88 -65 0
-88 -68 0
-88 -71 0
87 65 68 71 88 0
-89 -84 0
-89 -88 0
84 88 89 0
-90 -84 0
-90 89 0
84 -89 90 0
-91 84 0
-91 -89 0
-84 89 91 0
-90 92 0
-91 92 0
-92 90 91 0
-93 -3 0
-93 19 0
3 -19 93 0
-94 3 0
-94 -19 0
-3 19 94 0
-93 95 0
-94 95 0
-95 93 94 0
-96 -2 0
-96 18 0
2 -18 96 0
-97 2 0
-97 -18 0
-2 18 97 0
-96 98 0
-97 98 0
-98 96 97 0
-99 -1 0
-99 17 0
1 -17 99 0
-100 1 0
-100 -17 0
-1 17 100 0
-99 101 0
-100 101 0
-101 99 100 0
-4 -102 0
4 102 0
-102 103 0
-20 103 0
-103 102 20 0
-3 -104 0
3 104 0
-104 105 0
-19 105 0
-105 104 19 0
-2 -106 0
2 106 0
-106 107 0
-18 107 0
-107 106 18 0
-1 -108 0
1 108 0
-108 109 0
-17 109 0
-109 108 17 0
-109 -110 0
109 110 0
-111 -101 0
-111 -107 0
101 107 111 0
-112 -98 0
-112 -101 0
-112 -105 0
98 101 105 112 0
-113 -95 0
-113 -98 0
-113 -101 0
-113 -103 0
95 98 101 103 113 0
-110 114 0
-111 114 0
-112 114 0
-113 114 0
-114 110 111 112 113 0
-115 -4 0
-115 20 0
4 -20 115 0
-116 4 0
-116 -20 0
-4 20 116 0
-115 117 0
-116 117 0
-117 115 116 0
-118 -117 0
-118 -95 0
-118 -98 0
-118 -101 0
117 95 98 101 118 0
-119 -114 0
-119 -118 0
114 118 119 0
-120 -114 0
-120 119 0
114 -119 120 0
-121 114 0
-121 -119 0
-114 119 121 0
-120 122 0
-121 122 0
-122 120 121 0
-123 -15 0
-123 31 0
15 -31 123 0
-124 15 0
-124 -31 0
-15 31 124 0
-123 125 0
-124 125 0
-125 123 124 0
-126 -14 0
-126 30 0
14 -30 126 0
-127 14 0
-127 -30 0
-14 30 127 0
-126 128 0
-127 128 0
-128 126 127 0
-129 -13 0
-129 29 0
13 -29 129 0
-130 13 0
-130 -29 0
-13 29 130 0
-129 131 0
-130 131 0
-131 129 130 0
-16 -132 0
16 132 0
-132 133 0
-32 133 0
-133 132 32 0
-15 -134 0
15 134 0
-134 135 0
-31 135 0
-135 134 31 0
-14 -136 0
14 136 0
-136 137 0
-30 137 0
-137 136 30 0
-13 -138 0
13 138 0
-138 139 0
-29 139 0
-139 138 29 0
-139 -140 0
139 140 0
-141 -131 0
-141 -137 0
131 137 141 0
-142 -128 0
-142 -131 0
-142 -135 0
128 131 135 142 0
-143 -125 0
-143 -128 0
-143 -131 0
-143 -133 0
125 128 131 133 143 0
-140 144 0
-141 144 0
-142 144 0
-143 144 0
-144 140 141 142 143 0
-145 -16 0
-145 32 0
16 -32 145 0
-146 16 0
-146 -32 0
-16 32 146 0
-145 147 0
-146 147 0
-147 145 146 0
-148 -147 0
-148 -125 0
-148 -128 0
-148 -131 0
147 125 128 131 148 0
-149 -144 0
-149 -148 0
144 148 149 0
-144 -150 0
144 150 0
-150 151 0
-149 151 0
-151 150 149 0
-54 -152 0
54 152 0
-152 153 0
-59 153 0
-153 152 59 0
-84 -154 0
84 154 0
-154 155 0
-89 155 0
-155 154 89 0
-114 -156 0
114 156 0
-156 157 0
-119 157 0
-157 156 119 0
-157 -158 0
157 158 0
-159 -122 0
-159 -155 0
122 155 159 0
-160 -92 0
-160 -122 0
-160 -153 0
92 122 153 160 0
-161 -62 0
-161 -92 0
-161 -122 0
-161 -151 0
62 92 122 151 161 0
-158 162 0
-159 162 0
-160 162 0
-161 162 0
-162 158 159 160 161 0
-163 -144 0
-163 149 0
144 -149 163 0
-164 144 0
-164 -149 0
-144 149 164 0
-163 165 0
-164 165 0
-165 163 164 0
-166 -165 0
-166 -62 0
-166 -92 0
-166 -122 0
165 62 92 122 166 0
-167 -162 0
-167 -166 0
162 166 167 0
-178 -169 0
-178 168 0
169 -168 178 0
-179 169 0
-179 -168 0
-169 168 179 0
-178 180 0
-179 180 0
-180 178 179 0
-181 -7 0
-181 23 0
7 -23 181 0
-182 7 0
-182 -23 0
-7 23 182 0
-181 183 0
-182 183 0
-183 181 182 0
-184 -6 0
-184 22 0
6 -22 184 0
-185 6 0
-185 -22 0
-6 22 185 0
-184 186 0
-185 186 0
-186 184 185 0
-187 -5 0
-187 21 0
5 -21 187 0
-188 5 0
-188 -21 0
-5 21 188 0
-187 189 0
-188 189 0
-189 187 188 0
-8 -190 0
8 190 0
-190 191 0
-24 191 0
-191 190 24 0
-7 -192 0
7 192 0
-192 193 0
-23 193 0
-193 192 23 0
-6 -194 0
6 194 0
-194 195 0
-22 195 0
-195 194 22 0
-5 -196 0
5 196 0
-196 197 0
-21 197 0
-197 196 21 0
-197 -198 0
197 198 0
-199 -189 0
-199 -195 0
189 195 199 0
-200 -186 0
-200 -189 0
-200 -193 0
186 189 193 200 0
-201 -183 0
-201 -186 0
-201 -189 0
-201 -191 0
183 186 189 191 201 0
-198 202 0
-199 202 0
-200 202 0
-201 202 0
-202 198 199 200 201 0
-203 -8 0
-203 24 0
8 -24 203 0
-204 8 0
-204 -24 0
-8 24 204 0
-203 205 0
-204 205 0
-205 203 204 0
-206 -205 0
-206 -183 0
-206 -186 0
-206 -189 0
205 183 186 189 206 0
-207 -202 0
-207 -206 0
202 206 207 0
-208 -202 0
-208 207 0
202 -207 208 0
-209 202 0
-209 -207 0
-202 207 209 0
-208 210 0
-209 210 0
-210 208 209 0
-211 -3 0
-211 19 0
3 -19 211 0
-212 3 0
-212 -19 0
-3 19 212 0
-211 213 0
-212 213 0
-213 211 212 0
-214 -2 0
-214 18 0
2 -18 214 0
-215 2 0
-215 -18 0
-2 18 215 0
-214 216 0
-215 216 0
-216 214 215 0
-217 -1 0
-217 17 0
1 -17 217 0
-218 1 0
-218 -17 0
-1 17 218 0
-217 219 0
-218 219 0
-219 217 218 0
-4 -220 0
4 220 0
-220 221 0
-20 221 0
-221 220 20 0
-3 -222 0
3 222 0
-222 223 0
-19 223 0
-223 222 19 0
-2 -224 0
2 224 0
-224 225 0
-18 225 0
-225 224 18 0
-1 -226 0
1 226 0
-226 227 0
-17 227 0
-227 226 17 0
-227 -228 0
227 228 0
-229 -219 0
-229 -225 0
219 225 229 0
-230 -216 0
-230 -219 0
-230 -223 0
216 219 223 230 0
-231 -213 0
-231 -216 0
-231 -219 0
-231 -221 0
213 216 219 221 231 0
-228 232 0
-229 232 0
-230 232 0
-231 232 0
-232 228 229 230 231 0
-233 -4 0
-233 20 0
4 -20 233 0
-234 4 0
-234 -20 0
-4 20 234 0
-233 235 0
-234 235 0
-235 233 234 0
-236 -235 0
-236 -213 0
-236 -216 0
-236 -219 0
235 213 216 219 236 0
-237 -232 0
-237 -236 0
232 236 237 0
-238 -232 0
-238 237 0
232 -237 238 0
-239 232 0
-239 -237 0
-232 237 239 0
-238 240 0
-239 240 0
-240 238 239 0
-241 -15 0
-241 31 0
15 -31 241 0
-242 15 0
-242 -31 0
-15 31 242 0
-241 243 0
-242 243 0
-243 241 242 0
-244 -14 0
-244 30 0
14 -30 244 0
-245 14 0
-245 -30 0
-14 30 245 0
-244 246 0
-245 246 0
-246 244 245 0
-247 -13 0
-247 29 0
13 -29 247 0
-248 13 0
-248 -29 0
-13 29 248 0
-247 249 0
-248 249 0
-249 247 248 0
-16 -250 0
16 250 0
-250 251 0
-32 251 0
-251 250 32 0
-15 -252 0
15 252 0
-252 253 0
-31 253 0
-253 252 31 0
-14 -254 0
14 254 0
-254 255 0
-30 255 0
-255 254 30 0
-13 -256 0
13 256 0
-256 257 0
-29 257 0
-257 256 29 0
-257 -258 0
257 258 0
-259 -249 0
-259 -255 0
249 255 259 0
-260 -246 0
-260 -249 0
-260 -253 0
246 249 253 260 0
-261 -243 0
-261 -246 0
-261 -249 0
-261 -251 0
243 246 249 251 261 0
-258 262 0
-259 262 0
-260 262 0
-261 262 0
-262 258 259 260 261 0
-263 -16 0
-263 32 0
16 -32 263 0
-264 16 0
-264 -32 0
-16 32 264 0
-263 265 0
-264 265 0
-265 263 264 0
-266 -265 0
-266 -243 0
-266 -246 0
-266 -249 0
265 243 246 249 266 0
-267 -262 0
-267 -266 0
262 266 267 0
-262 -268 0
262 268 0
-268 269 0
-267 269 0
-269 268 267 0
-169 -270 0
169 270 0
-270 271 0
-168 271 0
-271 270 168 0
-202 -272 0
202 272 0
-272 273 0
-207 273 0
-273 272 207 0
-232 -274 0
232 274 0
-274 275 0
-237 275 0
-275 274 237 0
-275 -276 0
275 276 0
-277 -240 0
-277 -273 0
240 273 277 0
-278 -210 0
-278 -240 0
-278 -271 0
210 240 271 278 0
-279 -180 0
-279 -210 0
-279 -240 0
-279 -269 0
180 210 240 269 279 0
-276 280 0
-277 280 0
-278 280 0
-279 280 0
-280 276 277 278 279 0
-281 -262 0
-281 267 0
262 -267 281 0
-282 262 0
-282 -267 0
-262 267 282 0
-281 283 0
-282 283 0
-283 281 282 0
-284 -283 0
-284 -180 0
-284 -210 0
-284 -240 0
283 180 210 240 284 0
-285 -280 0
-285 -284 0
280 284 285 0
-286 -11 0
-286 27 0
11 -27 286 0
-287 11 0
-287 -27 0
-11 27 287 0
-286 288 0
-287 288 0
-288 286 287 0
-289 -10 0
-289 26 0
10 -26 289 0
-290 10 0
-290 -26 0
-10 26 290 0
-289 291 0
-290 291 0
-291 289 290 0
-292 -9 0
-292 25 0
9 -25 292 0
-293 9 0
-293 -25 0
-9 25 293 0
-292 294 0
-293 294 0
-294 292 293 0
-12 -295 0
12 295 0
-295 296 0
-28 296 0
-296 295 28 0
-11 -297 0
11 297 0
-297 298 0
-27 298 0
-298 297 27 0
-10 -299 0
10 299 0
-299 300 0
-26 300 0
-300 299 26 0
-9 -301 0
9 301 0
-301 302 0
-25 302 0
-302 301 25 0
-303 -12 0
-303 28 0
12 -28 303 0
-304 12 0
-304 -28 0
-12 28 304 0
-303 305 0
-304 305 0
-305 303 304 0
-306 -167 285 0
-306 167 -285 0
306 -167 -285 0
306 167 285 0
-307 -166 284 0
-307 166 -284 0
307 -166 -284 0
307 166 284 0
-308 -162 280 0
-308 162 -280 0
308 -162 -280 0
308 162 280 0
-306 -307 -308 309 0
-309 306 0
-309 307 0
-309 308 0
-288 -170 -310 0
-288 170 310 0
288 -170 310 0
288 170 -310 0
-291 -171 -311 0
-291 171 311 0
291 -171 311 0
291 171 -311 0
-294 -172 -312 0
-294 172 312 0
294 -172 312 0
294 172 -312 0
-296 -173 -313 0
-296 173 313 0
296 -173 313 0
296 173 -313 0
-298 -174 -314 0
-298 174 314 0
298 -174 314 0
298 174 -314 0
-300 -175 -315 0
-300 175 315 0
300 -175 315 0
300 175 -315 0
-302 -176 -316 0
-302 176 316 0
302 -176 316 0
302 176 -316 0
-305 -177 -317 0
-305 177 317 0
305 -177 317 0
305 177 -317 0
310 311 312 313 314 315 316 317 309 0
-11 -1171 0
27 -1171 0
11 -27 1171 0
11 -1172 0
-27 -1172 0
-11 27 1172 0
-33 -1173 0
-34 -1173 0
33 34 1173 0
-10 -1174 0
26 -1174 0
10 -26 1174 0
10 -1175 0
-26 -1175 0
-10 26 1175 0
-36 -1176 0
-37 -1176 0
36 37 1176 0
-9 -1177 0
25 -1177 0
9 -25 1177 0
9 -1178 0
-25 -1178 0
-9 25 1178 0
-39 -1179 0
-40 -1179 0
39 40 1179 0
-28 -1180 0
-42 -1180 0
28 42 1180 0
-27 -1181 0
-44 -1181 0
27 44 1181 0
-26 -1182 0
-46 -1182 0
26 46 1182 0
-25 -1183 0
-48 -1183 0
25 48 1183 0
-41 -1184 0
-47 -1184 0
41 47 1184 0
-38 -1185 0
-41 -1185 0
38 41 1185 0
-45 -1186 0
1185 -1186 0
45 -1185 1186 0
-35 -1187 0
1185 -1187 0
35 -1185 1187 0
-43 -1188 0
1187 -1188 0
43 -1187 1188 0
-50 -1189 0
-51 -1189 0
50 51 1189 0
-52 -1190 0
-53 -1190 0
52 53 1190 0
1189 -1191 0
1190 -1191 0
-1189 -1190 1191 0
-12 -1192 0
28 -1192 0
12 -28 1192 0
12 -1193 0
-28 -1193 0
-12 28 1193 0
-55 -1194 0
-56 -1194 0
55 56 1194 0
-57 -1195 0
1187 -1195 0
57 -1187 1195 0
-54 -1196 0
-58 -1196 0
54 58 1196 0
-54 -1197 0
59 -1197 0
54 -59 1197 0
54 -1198 0
-59 -1198 0
-54 59 1198 0
-60 -1199 0
-61 -1199 0
60 61 1199 0
-7 -1200 0
23 -1200 0
7 -23 1200 0
7 -1201 0
-23 -1201 0
-7 23 1201 0
-63 -1202 0
-64 -1202 0
63 64 1202 0
-6 -1203 0
22 -1203 0
6 -22 1203 0
6 -1204 0
-22 -1204 0
-6 22 1204 0
-66 -1205 0
-67 -1205 0
66 67 1205 0
-5 -1206 0
21 -1206 0
5 -21 1206 0
5 -1207 0
-21 -1207 0
-5 21 1207 0
-69 -1208 0
-70 -1208 0
69 70 1208 0
-24 -1209 0
-72 -1209 0
24 72 1209 0
-23 -1210 0
-74 -1210 0
23 74 1210 0
-22 -1211 0
-76 -1211 0
22 76 1211 0
-21 -1212 0
-78 -1212 0
21 78 1212 0
-71 -1213 0
-77 -1213 0
71 77 1213 0
-68 -1214 0
-71 -1214 0
68 71 1214 0
-75 -1215 0
1214 -1215 0
75 -1214 1215 0
-65 -1216 0
1214 -1216 0
65 -1214 1216 0
-73 -1217 0
1216 -1217 0
73 -1216 1217 0
-80 -1218 0
-81 -1218 0
80 81 1218 0
-82 -1219 0
-83 -1219 0
82 83 1219 0
1218 -1220 0
1219 -1220 0
-1218 -1219 1220 0
-8 -1221 0
24 -1221 0
8 -24 1221 0
8 -1222 0
-24 -1222 0
-8 24 1222 0
-85 -1223 0
-86 -1223 0
85 86 1223 0
-87 -1224 0
1216 -1224 0
87 -1216 1224 0
-84 -1225 0
-88 -1225 0
84 88 1225 0
-84 -1226 0
89 -1226 0
84 -89 1226 0
84 -1227 0
-89 -1227 0
-84 89 1227 0
-90 -1228 0
-91 -1228 0
90 91 1228 0
-3 -1229 0
19 -1229 0
3 -19 1229 0
3 -1230 0
-19 -1230 0
-3 19 1230 0
-93 -1231 0
-94 -1231 0
93 94 1231 0
-2 -1232 0
18 -1232 0
2 -18 1232 0
2 -1233 0
-18 -1233 0
-2 18 1233 0
-96 -1234 0
-97 -1234 0
96 97 1234 0
-1 -1235 0
17 -1235 0
1 -17 1235 0
1 -1236 0
-17 -1236 0
-1 17 1236 0
-99 -1237 0
-100 -1237 0
99 100 1237 0
-20 -1238 0
-102 -1238 0
20 102 1238 0
-19 -1239 0
-104 -1239 0
19 104 1239 0
-18 -1240 0
-106 -1240 0
18 106 1240 0
-17 -1241 0
-108 -1241 0
17 108 1241 0
-101 -1242 0
-107 -1242 0
101 107 1242 0
-98 -1243 0
-101 -1243 0
98 101 1243 0
-105 -1244 0
1243 -1244 0
105 -1243 1244 0
-95 -1245 0
1243 -1245 0
95 -1243 1245 0
-103 -1246 0
1245 -1246 0
103 -1245 1246 0
-110 -1247 0
-111 -1247 0
110 111 1247 0
-112 -1248 0
-113 -1248 0
112 113 1248 0
1247 -1249 0
1248 -1249 0
-1247 -1248 1249 0
-4 -1250 0
20 -1250 0
4 -20 1250 0
4 -1251 0
-20 -1251 0
-4 20 1251 0
-115 -1252 0
-116 -1252 0
115 116 1252 0
-117 -1253 0
1245 -1253 0
117 -1245 1253 0
-114 -1254 0
-118 -1254 0
114 118 1254 0
-114 -1255 0
119 -1255 0
114 -119 1255 0
114 -1256 0
-119 -1256 0
-114 119 1256 0
-120 -1257 0
-121 -1257 0
120 121 1257 0
-15 -1258 0
31 -1258 0
15 -31 1258 0
15 -1259 0
-31 -1259 0
-15 31 1259 0
-123 -1260 0
-124 -1260 0
123 124 1260 0
-14 -1261 0
30 -1261 0
14 -30 1261 0
14 -1262 0
-30 -1262 0
-14 30 1262 0
-126 -1263 0
-127 -1263 0
126 127 1263 0
-13 -1264 0
29 -1264 0
13 -29 1264 0
13 -1265 0
-29 -1265 0
-13 29 1265 0
-129 -1266 0
-130 -1266 0
129 130 1266 0
-32 -1267 0
-132 -1267 0
32 132 1267 0
-31 -1268 0
-134 -1268 0
31 134 1268 0
-30 -1269 0
-136 -1269 0
30 136 1269 0
-29 -1270 0
-138 -1270 0
29 138 1270 0
-131 -1271 0
-137 -1271 0
131 137 1271 0
-128 -1272 0
-131 -1272 0
128 131 1272 0
-135 -1273 0
1272 -1273 0
135 -1272 1273 0
-125 -1274 0
1272 -1274 0
125 -1272 1274 0
-133 -1275 0
1274 -1275 0
133 -1274 1275 0
-140 -1276 0
-141 -1276 0
140 141 1276 0
-142 -1277 0
-143 -1277 0
142 143 1277 0
1276 -1278 0
1277 -1278 0
-1276 -1277 1278 0
-16 -1279 0
32 -1279 0
16 -32 1279 0
16 -1280 0
-32 -1280 0
-16 32 1280 0
-145 -1281 0
-146 -1281 0
145 146 1281 0
-147 -1282 0
1274 -1282 0
147 -1274 1282 0
-144 -1283 0
-148 -1283 0
144 148 1283 0
-149 -1284 0
-150 -1284 0
149 150 1284 0
-59 -1285 0
-152 -1285 0
59 152 1285 0
-89 -1286 0
-154 -1286 0
89 154 1286 0
-119 -1287 0
-156 -1287 0
119 156 1287 0
-122 -1288 0
-155 -1288 0
122 155 1288 0
-92 -1289 0
-122 -1289 0
92 122 1289 0
-153 -1290 0
1289 -1290 0
153 -1289 1290 0
-62 -1291 0
1289 -1291 0
62 -1289 1291 0
-151 -1292 0
1291 -1292 0
151 -1291 1292 0
-158 -1293 0
-159 -1293 0
158 159 1293 0
-160 -1294 0
-161 -1294 0
160 161 1294 0
1293 -1295 0
1294 -1295 0
-1293 -1294 1295 0
-144 -1296 0
149 -1296 0
144 -149 1296 0
144 -1297 0
-149 -1297 0
-144 149 1297 0
-163 -1298 0
-164 -1298 0
163 164 1298 0
-165 -1299 0
1291 -1299 0
165 -1291 1299 0
-162 -1300 0
-166 -1300 0
162 166 1300 0
-178 -1301 0
-179 -1301 0
178 179 1301 0
-181 -1302 0
-182 -1302 0
181 182 1302 0
-184 -1303 0
-185 -1303 0
184 185 1303 0
-187 -1304 0
-188 -1304 0
187 188 1304 0
-24 -1305 0
-190 -1305 0
24 190 1305 0
-23 -1306 0
-192 -1306 0
23 192 1306 0
-22 -1307 0
-194 -1307 0
22 194 1307 0
-21 -1308 0
-196 -1308 0
21 196 1308 0
-189 -1309 0
-195 -1309 0
189 195 1309 0
-186 -1310 0
-189 -1310 0
186 189 1310 0
-193 -1311 0
1310 -1311 0
193 -1310 1311 0
-183 -1312 0
1310 -1312 0
183 -1310 1312 0
-191 -1313 0
1312 -1313 0
191 -1312 1313 0
-198 -1314 0
-199 -1314 0
198 199 1314 0
-200 -1315 0
-201 -1315 0
200 201 1315 0
1314 -1316 0
1315 -1316 0
-1314 -1315 1316 0
-203 -1317 0
-204 -1317 0
203 204 1317 0
-205 -1318 0
1312 -1318 0
205 -1312 1318 0
-202 -1319 0
-206 -1319 0
202 206 1319 0
-202 -1320 0
207 -1320 0
202 -207 1320 0
202 -1321 0
-207 -1321 0
-202 207 1321 0
-208 -1322 0
-209 -1322 0
208 209 1322 0
-211 -1323 0
-212 -1323 0
211 212 1323 0
-214 -1324 0
-215 -1324 0
214 215 1324 0
-217 -1325 0
-218 -1325 0
217 218 1325 0
-20 -1326 0
-220 -1326 0
20 220 1326 0
-19 -1327 0
-222 -1327 0
19 222 1327 0
-18 -1328 0
-224 -1328 0
18 224 1328 0
-17 -1329 0
-226 -1329 0
17 226 1329 0
-219 -1330 0
-225 -1330 0
219 225 1330 0
-216 -1331 0
-219 -1331 0
216 219 1331 0
-223 -1332 0
1331 -1332 0
223 -1331 1332 0
-213 -1333 0
1331 -1333 0
213 -1331 1333 0
-221 -1334 0
1333 -1334 0
221 -1333 1334 0
-228 -1335 0
-229 -1335 0
228 229 1335 0
-230 -1336 0
-231 -1336 0
230 231 1336 0
1335 -1337 0
1336 -1337 0
-1335 -1336 1337 0
-233 -1338 0
-234 -1338 0
233 234 1338 0
-235 -1339 0
1333 -1339 0
235 -1333 1339 0
-232 -1340 0
-236 -1340 0
232 236 1340 0
-232 -1341 0
237 -1341 0
232 -237 1341 0
232 -1342 0
-237 -1342 0
-232 237 1342 0
-238 -1343 0
-239 -1343 0
238 239 1343 0
-241 -1344 0
-242 -1344 0
241 242 1344 0
-244 -1345 0
-245 -1345 0
244 245 1345 0
-247 -1346 0
-248 -1346 0
247 248 1346 0
-32 -1347 0
-250 -1347 0
32 250 1347 0
-31 -1348 0
-252 -1348 0
31 252 1348 0
-30 -1349 0
-254 -1349 0
30 254 1349 0
-29 -1350 0
-256 -1350 0
29 256 1350 0
-249 -1351 0
-255 -1351 0
249 255 1351 0
-246 -1352 0
-249 -1352 0
246 249 1352 0
-253 -1353 0
1352 -1353 0
253 -1352 1353 0
-243 -1354 0
1352 -1354 0
243 -1352 1354 0
-251 -1355 0
1354 -1355 0
251 -1354 1355 0
-258 -1356 0
-259 -1356 0
258 259 1356 0
-260 -1357 0
-261 -1357 0
260 261 1357 0
1356 -1358 0
1357 -1358 0
-1356 -1357 1358 0
-263 -1359 0
-264 -1359 0
263 264 1359 0
-265 -1360 0
1354 -1360 0
265 -1354 1360 0
-262 -1361 0
-266 -1361 0
262 266 1361 0
-267 -1362 0
-268 -1362 0
267 268 1362 0
179 -1363 0
-270 -1363 0
-179 270 1363 0
-207 -1364 0
-272 -1364 0
207 272 1364 0
-237 -1365 0
-274 -1365 0
237 274 1365 0
-240 -1366 0
-273 -1366 0
240 273 1366 0
-210 -1367 0
-240 -1367 0
210 240 1367 0
-271 -1368 0
1367 -1368 0
271 -1367 1368 0
-180 -1369 0
1367 -1369 0
180 -1367 1369 0
-269 -1370 0
1369 -1370 0
269 -1369 1370 0
-276 -1371 0
-277 -1371 0
276 277 1371 0
-278 -1372 0
-279 -1372 0
278 279 1372 0
1371 -1373 0
1372 -1373 0
-1371 -1372 1373 0
-262 -1374 0
267 -1374 0
262 -267 1374 0
262 -1375 0
-267 -1375 0
-262 267 1375 0
-281 -1376 0
-282 -1376 0
281 282 1376 0
-283 -1377 0
1369 -1377 0
283 -1369 1377 0
-280 -1378 0
-284 -1378 0
280 284 1378 0
-286 -1379 0
-287 -1379 0
286 287 1379 0
-289 -1380 0
-290 -1380 0
289 290 1380 0
-292 -1381 0
-293 -1381 0
292 293 1381 0
-28 -1382 0
-295 -1382 0
28 295 1382 0
-27 -1383 0
-297 -1383 0
27 297 1383 0
-26 -1384 0
-299 -1384 0
26 299 1384 0
-25 -1385 0
-301 -1385 0
25 301 1385 0
-303 -1386 0
-304 -1386 0
303 304 1386 0
167 -1387 0
-285 -1387 0
-167 285 1387 0
-167 -1388 0
285 -1388 0
167 -285 1388 0
-1387 -1389 0
-1388 -1389 0
1387 1388 1389 0
166 -1390 0
-284 -1390 0
-166 284 1390 0
-166 -1391 0
284 -1391 0
166 -284 1391 0
-1390 -1392 0
-1391 -1392 0
1390 1391 1392 0
162 -1393 0
-280 -1393 0
-162 280 1393 0
-162 -1394 0
280 -1394 0
162 -280 1394 0
-1393 -1395 0
-1394 -1395 0
1393 1394 1395 0
306 -1396 0
307 -1396 0
-306 -307 1396 0
308 -1397 0
1396 -1397 0
-308 -1396 1397 0
-170 -1398 0
288 -1398 0
170 -288 1398 0
27 -1399 0
33 -1399 0
-27 -33 1399 0
-1172 -1400 0
-1399 -1400 0
1172 1399 1400 0
-1398 -1401 0
-1400 -1401 0
1398 1400 1401 0
170 -1402 0
-288 -1402 0
-170 288 1402 0
-1171 -1403 0
-1172 -1403 0
1171 1172 1403 0
-1402 -1404 0
1403 -1404 0
1402 -1403 1404 0
-1401 -1405 0
-1404 -1405 0
1401 1404 1405 0
-1174 -1406 0
-1175 -1406 0
1174 1175 1406 0
171 -1407 0
-291 -1407 0
-171 291 1407 0
1406 -1408 0
1407 -1408 0
-1406 -1407 1408 0
-171 -1409 0
291 -1409 0
171 -291 1409 0
-1406 -1410 0
1409 -1410 0
1406 -1409 1410 0
-1408 -1411 0
-1410 -1411 0
1408 1410 1411 0
-1177 -1412 0
-1178 -1412 0
1177 1178 1412 0
172 -1413 0
-294 -1413 0
-172 294 1413 0
1412 -1414 0
1413 -1414 0
-1412 -1413 1414 0
-172 -1415 0
294 -1415 0
172 -294 1415 0
-1412 -1416 0
1415 -1416 0
1412 -1415 1416 0
-1414 -1417 0
-1416 -1417 0
1414 1416 1417 0
-173 -1418 0
-296 -1418 0
173 296 1418 0
173 -1419 0
296 -1419 0
-173 -296 1419 0
-1418 -1420 0
-1419 -1420 0
1418 1419 1420 0
-27 -1421 0
174 -1421 0
27 -174 1421 0
-298 -1422 0
1421 -1422 0
298 -1421 1422 0
-174 -1423 0
298 -1423 0
174 -298 1423 0
-1422 -1424 0
-1423 -1424 0
1422 1423 1424 0
-175 -1425 0
300 -1425 0
175 -300 1425 0
-1175 -1426 0
-1425 -1426 0
1175 1425 1426 0
175 -1427 0
-300 -1427 0
-175 300 1427 0
1175 -1428 0
-1427 -1428 0
-1175 1427 1428 0
-1426 -1429 0
-1428 -1429 0
1426 1428 1429 0
-176 -1430 0
-1178 -1430 0
176 1178 1430 0
176 -1431 0
1178 -1431 0
-176 -1178 1431 0
-1430 -1432 0
-1431 -1432 0
1430 1431 1432 0
-177 -1433 0
-305 -1433 0
177 305 1433 0
177 -1434 0
305 -1434 0
-177 -305 1434 0
-1433 -1435 0
-1434 -1435 0
1433 1434 1435 0
